Minimize
 obj: 0 X_0_1
Subject To
 out_0:
  + 1 X_0_1 + 1 X_0_2 + 1 X_0_3 + 1 X_0_4
  = 1
 in_0:
  + 1 X_1_0 + 1 X_2_0 + 1 X_3_0 + 1 X_4_0
  = 1
 out_1:
  + 1 X_1_0 + 1 X_1_2 + 1 X_1_3 + 1 X_1_4
  = 1
 in_1:
  + 1 X_0_1 + 1 X_2_1 + 1 X_3_1 + 1 X_4_1
  = 1
 out_2:
  + 1 X_2_0 + 1 X_2_1 + 1 X_2_3 + 1 X_2_4
  = 1
 in_2:
  + 1 X_0_2 + 1 X_1_2 + 1 X_3_2 + 1 X_4_2
  = 1
 out_3:
  + 1 X_3_0 + 1 X_3_1 + 1 X_3_2 + 1 X_3_4
  = 1
 in_3:
  + 1 X_0_3 + 1 X_1_3 + 1 X_2_3 + 1 X_4_3
  = 1
 out_4:
  + 1 X_4_0 + 1 X_4_1 + 1 X_4_2 + 1 X_4_3
  = 1
 in_4:
  + 1 X_0_4 + 1 X_1_4 + 1 X_2_4 + 1 X_3_4
  = 1
 mtz_1_2:
  + 1 U1 - 1 U2 + 4 X_1_2
  <= 3
 mtz_1_3:
  + 1 U1 - 1 U3 + 4 X_1_3
  <= 3
 mtz_1_4:
  + 1 U1 - 1 U4 + 4 X_1_4
  <= 3
 mtz_2_1:
  + 1 U2 - 1 U1 + 4 X_2_1
  <= 3
 mtz_2_3:
  + 1 U2 - 1 U3 + 4 X_2_3
  <= 3
 mtz_2_4:
  + 1 U2 - 1 U4 + 4 X_2_4
  <= 3
 mtz_3_1:
  + 1 U3 - 1 U1 + 4 X_3_1
  <= 3
 mtz_3_2:
  + 1 U3 - 1 U2 + 4 X_3_2
  <= 3
 mtz_3_4:
  + 1 U3 - 1 U4 + 4 X_3_4
  <= 3
 mtz_4_1:
  + 1 U4 - 1 U1 + 4 X_4_1
  <= 3
 mtz_4_2:
  + 1 U4 - 1 U2 + 4 X_4_2
  <= 3
 mtz_4_3:
  + 1 U4 - 1 U3 + 4 X_4_3
  <= 3
 obj1:
  + 628 X_0_1 + 710 X_0_2 + 696 X_0_3 + 240 X_0_4 + 628 X_1_0 + 195 X_1_2 + 738 X_1_3 + 418 X_1_4
  + 710 X_2_0 + 195 X_2_1 + 619 X_2_3 + 542 X_2_4 + 696 X_3_0 + 738 X_3_1 + 619 X_3_2 + 739 X_3_4
  + 240 X_4_0 + 418 X_4_1 + 542 X_4_2 + 739 X_4_3
  <= 1
 obj2:
  + 72 X_0_1 + 466 X_0_2 + 506 X_0_3 + 593 X_0_4 + 72 X_1_0 + 457 X_1_2 + 549 X_1_3 + 600 X_1_4
  + 466 X_2_0 + 457 X_2_1 + 376 X_2_3 + 181 X_2_4 + 506 X_3_0 + 549 X_3_1 + 376 X_3_2 + 306 X_3_4
  + 593 X_4_0 + 600 X_4_1 + 181 X_4_2 + 306 X_4_3
  <= 2
 obj3:
  + 1203 X_0_1 + 668 X_0_2 + 897 X_0_3 + 650 X_0_4 + 1203 X_1_0 + 698 X_1_2 + 552 X_1_3 + 733 X_1_4
  + 668 X_2_0 + 698 X_2_1 + 744 X_2_3 + 664 X_2_4 + 897 X_3_0 + 552 X_3_1 + 744 X_3_2 + 259 X_3_4
  + 650 X_4_0 + 733 X_4_1 + 664 X_4_2 + 259 X_4_3
  <= 3
 obj4:
  + 413 X_0_1 + 853 X_0_2 + 171 X_0_3 + 836 X_0_4 + 413 X_1_0 + 718 X_1_2 + 337 X_1_3 + 813 X_1_4
  + 853 X_2_0 + 718 X_2_1 + 925 X_2_3 + 224 X_2_4 + 171 X_3_0 + 337 X_3_1 + 925 X_3_2 + 945 X_3_4
  + 836 X_4_0 + 813 X_4_1 + 224 X_4_2 + 945 X_4_3
  <= 4
 obj5:
  + 809 X_0_1 + 263 X_0_2 + 150 X_0_3 + 967 X_0_4 + 809 X_1_0 + 569 X_1_2 + 906 X_1_3 + 162 X_1_4
  + 263 X_2_0 + 569 X_2_1 + 337 X_2_3 + 731 X_2_4 + 150 X_3_0 + 906 X_3_1 + 337 X_3_2 + 1067 X_3_4
  + 967 X_4_0 + 162 X_4_1 + 731 X_4_2 + 1067 X_4_3
  <= 5
 obj6:
  + 637 X_0_1 + 785 X_0_2 + 162 X_0_3 + 156 X_0_4 + 637 X_1_0 + 717 X_1_2 + 659 X_1_3 + 584 X_1_4
  + 785 X_2_0 + 717 X_2_1 + 930 X_2_3 + 629 X_2_4 + 162 X_3_0 + 659 X_3_1 + 930 X_3_2 + 310 X_3_4
  + 156 X_4_0 + 584 X_4_1 + 629 X_4_2 + 310 X_4_3
  <= 6
Bounds
 1 <= U1 <= 4
 1 <= U2 <= 4
 1 <= U3 <= 4
 1 <= U4 <= 4
Binary
 X_0_1
 X_0_2
 X_0_3
 X_0_4
 X_1_0
 X_1_2
 X_1_3
 X_1_4
 X_2_0
 X_2_1
 X_2_3
 X_2_4
 X_3_0
 X_3_1
 X_3_2
 X_3_4
 X_4_0
 X_4_1
 X_4_2
 X_4_3
End
